33D32945 STP File, STP Format Version 1.0

SECTION Comment
Name "i640-202-PCST"
Creator "Indaco Biazzo" 
Remark "derived from Incidence graph by Cees Duin"
END

SECTION Graph
Nodes 640
Edges 960
E 1 39 290.000000
E 1 44 293.000000
E 1 309 201.000000
E 1 321 205.000000
E 1 344 192.000000
E 1 433 200.000000
E 1 488 198.000000
E 1 548 202.000000
E 1 625 201.000000
E 2 37 305.000000
E 2 71 199.000000
E 2 95 208.000000
E 2 120 207.000000
E 2 266 197.000000
E 2 345 204.000000
E 3 612 205.000000
E 4 456 205.000000
E 4 640 207.000000
E 5 347 203.000000
E 5 450 196.000000
E 5 599 200.000000
E 6 148 208.000000
E 6 346 202.000000
E 6 364 201.000000
E 7 194 202.000000
E 7 304 200.000000
E 8 77 198.000000
E 8 85 202.000000
E 8 512 197.000000
E 9 235 207.000000
E 9 303 200.000000
E 9 329 199.000000
E 9 454 202.000000
E 9 557 197.000000
E 10 337 194.000000
E 11 30 305.000000
E 11 117 202.000000
E 11 333 194.000000
E 12 39 307.000000
E 12 150 199.000000
E 12 415 196.000000
E 12 464 198.000000
E 12 483 203.000000
E 12 511 194.000000
E 12 590 197.000000
E 13 277 192.000000
E 13 572 206.000000
E 14 300 201.000000
E 14 567 194.000000
E 15 89 195.000000
E 15 116 205.000000
E 15 302 201.000000
E 15 323 201.000000
E 15 617 201.000000
E 16 110 199.000000
E 17 25 294.000000
E 18 162 198.000000
E 18 246 204.000000
E 18 462 206.000000
E 18 598 205.000000
E 19 224 200.000000
E 19 245 196.000000
E 19 333 193.000000
E 20 126 210.000000
E 20 509 198.000000
E 21 197 205.000000
E 21 477 204.000000
E 22 80 192.000000
E 23 593 202.000000
E 23 624 197.000000
E 24 304 208.000000
E 24 387 200.000000
E 24 535 198.000000
E 25 200 196.000000
E 25 367 202.000000
E 25 592 196.000000
E 26 83 204.000000
E 26 197 201.000000
E 26 369 202.000000
E 26 501 197.000000
E 27 105 206.000000
E 27 309 205.000000
E 28 93 194.000000
E 28 304 201.000000
E 28 591 191.000000
E 29 55 202.000000
E 29 402 204.000000
E 29 417 212.000000
E 29 443 199.000000
E 29 511 197.000000
E 30 35 303.000000
E 30 65 195.000000
E 30 140 194.000000
E 31 50 301.000000
E 31 521 199.000000
E 32 359 196.000000
E 32 520 193.000000
E 32 550 207.000000
E 33 471 194.000000
E 34 76 196.000000
E 34 276 200.000000
E 34 294 205.000000
E 35 77 196.000000
E 36 201 203.000000
E 37 212 196.000000
E 38 413 193.000000
E 39 211 197.000000
E 39 568 199.000000
E 39 627 196.000000
E 40 152 196.000000
E 40 634 201.000000
E 41 381 194.000000
E 41 465 196.000000
E 41 502 204.000000
E 42 322 196.000000
E 42 567 195.000000
E 43 175 197.000000
E 43 202 199.000000
E 43 294 204.000000
E 43 372 194.000000
E 43 606 201.000000
E 44 77 196.000000
E 44 131 191.000000
E 44 542 207.000000
E 45 251 203.000000
E 45 292 197.000000
E 45 359 200.000000
E 46 158 196.000000
E 46 232 204.000000
E 46 512 197.000000
E 47 559 189.000000
E 48 580 204.000000
E 48 607 205.000000
E 49 259 201.000000
E 50 122 201.000000
E 50 224 208.000000
E 50 256 195.000000
E 51 340 105.000000
E 51 595 106.000000
E 51 614 110.000000
E 52 161 106.000000
E 52 251 98.000000
E 52 367 102.000000
E 52 412 94.000000
E 53 598 94.000000
E 54 96 94.000000
E 54 266 104.000000
E 54 542 102.000000
E 54 571 101.000000
E 55 554 98.000000
E 55 560 103.000000
E 55 603 101.000000
E 56 541 107.000000
E 57 564 97.000000
E 58 255 99.000000
E 58 495 103.000000
E 59 432 105.000000
E 59 569 101.000000
E 60 357 104.000000
E 60 532 101.000000
E 61 98 100.000000
E 61 327 98.000000
E 61 478 100.000000
E 62 610 98.000000
E 63 237 96.000000
E 64 83 101.000000
E 64 551 106.000000
E 65 80 97.000000
E 65 160 96.000000
E 65 250 101.000000
E 65 268 99.000000
E 66 112 102.000000
E 66 458 92.000000
E 67 225 104.000000
E 67 556 101.000000
E 67 598 103.000000
E 68 84 95.000000
E 68 130 110.000000
E 68 579 92.000000
E 69 150 96.000000
E 69 406 100.000000
E 70 111 98.000000
E 70 153 96.000000
E 70 234 100.000000
E 71 145 100.000000
E 71 279 93.000000
E 71 376 100.000000
E 71 512 98.000000
E 71 541 105.000000
E 71 561 100.000000
E 72 161 109.000000
E 72 463 98.000000
E 72 518 96.000000
E 73 582 95.000000
E 74 410 100.000000
E 74 631 104.000000
E 75 198 90.000000
E 75 270 96.000000
E 75 308 102.000000
E 75 317 99.000000
E 75 634 102.000000
E 76 142 96.000000
E 76 402 95.000000
E 77 78 104.000000
E 77 114 104.000000
E 79 217 96.000000
E 79 377 101.000000
E 79 456 106.000000
E 79 609 108.000000
E 80 296 95.000000
E 80 547 100.000000
E 80 561 96.000000
E 80 569 93.000000
E 81 201 104.000000
E 81 398 96.000000
E 82 136 92.000000
E 82 510 100.000000
E 83 325 105.000000
E 84 309 98.000000
E 84 443 104.000000
E 85 99 90.000000
E 85 167 98.000000
E 85 177 89.000000
E 86 561 101.000000
E 86 573 105.000000
E 86 602 102.000000
E 87 130 100.000000
E 88 217 105.000000
E 88 219 99.000000
E 88 371 110.000000
E 88 616 111.000000
E 89 90 101.000000
E 89 105 102.000000
E 89 162 97.000000
E 89 421 97.000000
E 90 153 99.000000
E 90 333 106.000000
E 90 365 99.000000
E 90 437 104.000000
E 90 458 98.000000
E 90 494 87.000000
E 90 511 89.000000
E 91 147 90.000000
E 91 320 102.000000
E 92 339 95.000000
E 93 255 96.000000
E 94 387 95.000000
E 95 160 104.000000
E 96 266 100.000000
E 97 496 110.000000
E 97 569 96.000000
E 98 447 96.000000
E 98 464 108.000000
E 99 360 95.000000
E 99 385 103.000000
E 99 392 98.000000
E 99 589 105.000000
E 100 182 102.000000
E 100 209 105.000000
E 100 341 100.000000
E 100 394 91.000000
E 100 498 108.000000
E 100 520 101.000000
E 101 226 100.000000
E 101 435 108.000000
E 102 154 99.000000
E 103 207 109.000000
E 103 512 94.000000
E 104 468 103.000000
E 104 517 101.000000
E 105 377 93.000000
E 106 472 100.000000
E 107 209 102.000000
E 108 253 98.000000
E 108 369 92.000000
E 108 540 95.000000
E 108 555 89.000000
E 109 304 103.000000
E 109 485 95.000000
E 109 512 99.000000
E 110 382 99.000000
E 112 428 98.000000
E 113 161 107.000000
E 113 429 109.000000
E 113 459 95.000000
E 113 561 100.000000
E 113 621 94.000000
E 114 197 95.000000
E 115 187 92.000000
E 116 338 98.000000
E 116 373 92.000000
E 116 415 100.000000
E 117 129 100.000000
E 118 340 97.000000
E 118 525 102.000000
E 119 469 99.000000
E 119 530 99.000000
E 119 635 101.000000
E 120 395 97.000000
E 121 217 102.000000
E 122 163 99.000000
E 122 521 100.000000
E 122 625 96.000000
E 123 355 103.000000
E 123 356 98.000000
E 123 530 101.000000
E 124 389 99.000000
E 124 522 96.000000
E 125 142 106.000000
E 125 250 93.000000
E 125 282 97.000000
E 125 364 97.000000
E 125 409 111.000000
E 125 466 102.000000
E 125 505 94.000000
E 125 530 104.000000
E 125 591 101.000000
E 126 411 97.000000
E 126 433 97.000000
E 126 599 103.000000
E 127 236 105.000000
E 127 329 94.000000
E 128 591 92.000000
E 129 497 97.000000
E 129 518 89.000000
E 130 154 110.000000
E 130 353 107.000000
E 130 470 104.000000
E 130 510 93.000000
E 131 517 99.000000
E 132 556 92.000000
E 133 436 99.000000
E 133 559 89.000000
E 134 306 100.000000
E 135 520 97.000000
E 135 584 100.000000
E 136 231 96.000000
E 137 281 98.000000
E 138 290 96.000000
E 138 626 93.000000
E 139 287 102.000000
E 140 176 98.000000
E 140 631 103.000000
E 141 479 98.000000
E 141 525 94.000000
E 142 638 101.000000
E 143 192 94.000000
E 143 288 112.000000
E 143 445 107.000000
E 144 432 100.000000
E 144 464 94.000000
E 144 636 99.000000
E 145 503 95.000000
E 146 231 91.000000
E 146 376 101.000000
E 147 224 97.000000
E 147 466 102.000000
E 147 552 103.000000
E 148 213 98.000000
E 148 347 100.000000
E 148 605 102.000000
E 149 345 96.000000
E 149 532 98.000000
E 150 184 98.000000
E 150 284 103.000000
E 150 500 104.000000
E 151 223 98.000000
E 151 602 97.000000
E 152 211 96.000000
E 152 213 103.000000
E 152 244 103.000000
E 152 302 111.000000
E 152 306 104.000000
E 152 310 95.000000
E 152 517 99.000000
E 153 180 98.000000
E 153 475 92.000000
E 153 534 101.000000
E 154 245 109.000000
E 154 251 108.000000
E 154 297 102.000000
E 155 460 89.000000
E 156 226 95.000000
E 156 233 103.000000
E 157 335 90.000000
E 158 331 106.000000
E 158 385 99.000000
E 159 240 102.000000
E 159 348 116.000000
E 161 221 105.000000
E 161 385 108.000000
E 163 288 102.000000
E 164 178 101.000000
E 165 330 103.000000
E 165 620 102.000000
E 166 213 101.000000
E 166 219 87.000000
E 166 351 104.000000
E 166 357 106.000000
E 166 553 93.000000
E 167 481 96.000000
E 168 305 99.000000
E 168 372 98.000000
E 169 216 103.000000
E 169 570 102.000000
E 169 605 99.000000
E 170 293 102.000000
E 170 621 99.000000
E 171 336 93.000000
E 171 460 98.000000
E 172 173 101.000000
E 172 205 107.000000
E 173 437 95.000000
E 173 575 101.000000
E 174 460 102.000000
E 174 462 104.000000
E 174 569 96.000000
E 176 181 88.000000
E 176 463 105.000000
E 177 600 105.000000
E 177 623 94.000000
E 178 283 98.000000
E 178 531 95.000000
E 178 537 100.000000
E 179 197 102.000000
E 179 342 102.000000
E 179 524 100.000000
E 180 469 97.000000
E 180 613 98.000000
E 181 205 93.000000
E 181 440 106.000000
E 182 190 105.000000
E 182 350 96.000000
E 182 459 91.000000
E 183 273 96.000000
E 184 228 91.000000
E 184 556 100.000000
E 185 338 104.000000
E 185 408 92.000000
E 186 457 94.000000
E 187 341 107.000000
E 187 629 107.000000
E 188 325 101.000000
E 188 382 101.000000
E 189 309 95.000000
E 190 597 92.000000
E 191 252 96.000000
E 192 488 92.000000
E 192 605 90.000000
E 192 624 95.000000
E 193 323 90.000000
E 193 514 92.000000
E 193 519 105.000000
E 194 292 94.000000
E 194 333 98.000000
E 194 451 107.000000
E 194 534 103.000000
E 195 303 100.000000
E 196 471 106.000000
E 197 203 102.000000
E 197 244 98.000000
E 197 338 100.000000
E 197 411 99.000000
E 198 563 103.000000
E 199 286 95.000000
E 199 472 98.000000
E 199 551 97.000000
E 199 567 102.000000
E 200 329 98.000000
E 200 526 99.000000
E 200 576 101.000000
E 200 611 87.000000
E 201 349 97.000000
E 201 403 97.000000
E 201 505 102.000000
E 202 281 102.000000
E 202 548 104.000000
E 202 567 106.000000
E 203 264 95.000000
E 204 302 98.000000
E 204 421 95.000000
E 205 544 106.000000
E 206 269 99.000000
E 206 281 99.000000
E 206 391 101.000000
E 207 246 97.000000
E 207 326 100.000000
E 207 350 105.000000
E 207 468 96.000000
E 207 587 94.000000
E 207 622 100.000000
E 208 416 93.000000
E 208 425 110.000000
E 208 474 100.000000
E 210 563 102.000000
E 210 617 96.000000
E 211 265 90.000000
E 212 331 104.000000
E 212 334 101.000000
E 212 513 99.000000
E 212 623 104.000000
E 213 386 91.000000
E 213 434 103.000000
E 213 480 95.000000
E 213 493 104.000000
E 213 640 95.000000
E 214 264 97.000000
E 214 338 108.000000
E 214 487 100.000000
E 215 277 100.000000
E 215 382 89.000000
E 215 394 105.000000
E 215 419 95.000000
E 216 520 88.000000
E 216 546 103.000000
E 216 622 97.000000
E 217 397 106.000000
E 217 556 99.000000
E 218 398 99.000000
E 218 448 95.000000
E 218 564 107.000000
E 219 343 103.000000
E 219 633 97.000000
E 220 403 104.000000
E 220 445 97.000000
E 220 531 103.000000
E 221 254 105.000000
E 221 277 105.000000
E 222 232 104.000000
E 222 365 99.000000
E 223 265 95.000000
E 223 386 103.000000
E 224 313 100.000000
E 224 584 96.000000
E 225 456 100.000000
E 225 631 102.000000
E 226 529 106.000000
E 226 535 94.000000
E 226 546 95.000000
E 227 291 107.000000
E 227 543 108.000000
E 228 236 89.000000
E 228 523 108.000000
E 228 631 108.000000
E 229 346 94.000000
E 229 546 101.000000
E 230 308 102.000000
E 230 351 97.000000
E 230 443 98.000000
E 231 406 98.000000
E 232 453 94.000000
E 232 548 94.000000
E 233 595 91.000000
E 236 413 99.000000
E 236 592 105.000000
E 236 597 98.000000
E 237 561 102.000000
E 237 565 91.000000
E 238 448 96.000000
E 238 486 104.000000
E 238 510 103.000000
E 239 278 100.000000
E 239 567 107.000000
E 240 345 102.000000
E 240 404 108.000000
E 240 450 106.000000
E 240 456 102.000000
E 240 525 96.000000
E 241 354 99.000000
E 241 488 89.000000
E 241 526 97.000000
E 242 344 98.000000
E 243 570 96.000000
E 244 303 101.000000
E 244 305 102.000000
E 244 313 104.000000
E 244 430 94.000000
E 244 492 96.000000
E 244 561 100.000000
E 245 418 101.000000
E 245 522 101.000000
E 246 307 96.000000
E 246 396 106.000000
E 246 414 101.000000
E 246 453 93.000000
E 246 525 99.000000
E 247 522 104.000000
E 248 564 98.000000
E 249 367 103.000000
E 249 387 98.000000
E 249 484 99.000000
E 250 473 103.000000
E 252 289 104.000000
E 252 329 97.000000
E 252 455 108.000000
E 252 457 95.000000
E 253 409 92.000000
E 254 410 101.000000
E 254 574 104.000000
E 254 596 102.000000
E 255 273 105.000000
E 256 392 106.000000
E 256 561 99.000000
E 257 302 105.000000
E 257 367 106.000000
E 258 413 95.000000
E 258 480 92.000000
E 258 582 96.000000
E 258 609 97.000000
E 259 318 106.000000
E 259 461 105.000000
E 260 314 104.000000
E 260 408 100.000000
E 261 408 97.000000
E 261 480 104.000000
E 262 288 97.000000
E 262 306 105.000000
E 263 278 94.000000
E 263 295 100.000000
E 263 348 105.000000
E 265 392 94.000000
E 265 473 104.000000
E 265 489 102.000000
E 267 416 94.000000
E 268 299 105.000000
E 268 516 96.000000
E 268 536 101.000000
E 269 566 92.000000
E 270 329 90.000000
E 271 535 102.000000
E 271 555 96.000000
E 272 369 104.000000
E 272 415 94.000000
E 273 329 96.000000
E 273 341 96.000000
E 274 433 106.000000
E 275 332 108.000000
E 275 550 102.000000
E 276 344 87.000000
E 276 360 107.000000
E 277 432 98.000000
E 277 452 102.000000
E 278 377 100.000000
E 280 512 92.000000
E 282 402 103.000000
E 283 423 110.000000
E 283 544 108.000000
E 283 587 108.000000
E 284 300 97.000000
E 285 414 98.000000
E 286 416 97.000000
E 286 462 95.000000
E 286 476 97.000000
E 287 581 102.000000
E 287 606 97.000000
E 288 579 99.000000
E 290 350 105.000000
E 290 403 99.000000
E 291 308 100.000000
E 291 516 109.000000
E 291 607 94.000000
E 292 513 101.000000
E 293 475 108.000000
E 294 615 97.000000
E 295 358 97.000000
E 295 612 96.000000
E 296 580 96.000000
E 297 452 94.000000
E 298 340 108.000000
E 298 343 99.000000
E 298 597 100.000000
E 299 411 108.000000
E 299 466 98.000000
E 299 547 99.000000
E 300 406 107.000000
E 300 560 103.000000
E 301 479 101.000000
E 301 575 99.000000
E 302 362 95.000000
E 302 467 102.000000
E 302 475 95.000000
E 303 378 95.000000
E 303 420 100.000000
E 304 379 103.000000
E 304 578 96.000000
E 306 340 111.000000
E 306 619 99.000000
E 308 381 106.000000
E 309 370 108.000000
E 309 469 110.000000
E 311 389 104.000000
E 311 639 108.000000
E 312 511 90.000000
E 313 430 99.000000
E 314 532 105.000000
E 314 538 107.000000
E 315 321 104.000000
E 316 323 102.000000
E 316 377 97.000000
E 316 494 103.000000
E 316 505 104.000000
E 317 340 87.000000
E 318 363 99.000000
E 318 464 95.000000
E 318 520 97.000000
E 319 461 105.000000
E 321 375 98.000000
E 322 562 85.000000
E 322 564 105.000000
E 323 379 99.000000
E 323 594 102.000000
E 324 537 96.000000
E 324 591 101.000000
E 324 635 101.000000
E 326 436 107.000000
E 326 452 102.000000
E 327 397 96.000000
E 327 597 97.000000
E 328 374 100.000000
E 328 397 100.000000
E 328 628 96.000000
E 329 403 102.000000
E 329 553 100.000000
E 330 406 100.000000
E 331 372 109.000000
E 331 423 104.000000
E 331 618 105.000000
E 331 629 107.000000
E 332 388 98.000000
E 332 401 104.000000
E 332 409 100.000000
E 332 464 88.000000
E 332 490 94.000000
E 332 533 98.000000
E 332 585 102.000000
E 334 360 102.000000
E 335 348 100.000000
E 335 447 102.000000
E 335 559 104.000000
E 335 580 101.000000
E 337 518 95.000000
E 337 532 107.000000
E 337 606 100.000000
E 339 462 101.000000
E 339 523 97.000000
E 340 407 97.000000
E 340 540 101.000000
E 341 344 90.000000
E 341 360 96.000000
E 341 372 96.000000
E 341 397 105.000000
E 342 562 108.000000
E 343 467 99.000000
E 343 524 94.000000
E 344 599 91.000000
E 344 617 89.000000
E 344 620 98.000000
E 345 471 109.000000
E 346 398 100.000000
E 346 406 93.000000
E 346 428 99.000000
E 347 609 107.000000
E 348 402 101.000000
E 348 588 101.000000
E 349 546 101.000000
E 349 583 100.000000
E 350 589 109.000000
E 351 389 102.000000
E 351 543 102.000000
E 352 540 105.000000
E 353 426 103.000000
E 355 390 91.000000
E 355 460 98.000000
E 355 617 97.000000
E 356 615 101.000000
E 357 508 106.000000
E 359 416 99.000000
E 361 520 93.000000
E 361 536 102.000000
E 363 384 96.000000
E 366 390 99.000000
E 366 589 101.000000
E 368 372 97.000000
E 368 516 108.000000
E 369 438 101.000000
E 371 395 101.000000
E 371 535 102.000000
E 371 540 93.000000
E 372 400 103.000000
E 372 525 103.000000
E 373 512 106.000000
E 375 580 103.000000
E 376 407 107.000000
E 376 535 107.000000
E 376 540 98.000000
E 376 551 103.000000
E 379 452 104.000000
E 379 606 92.000000
E 380 448 104.000000
E 382 632 102.000000
E 383 417 107.000000
E 383 618 99.000000
E 384 618 106.000000
E 385 421 98.000000
E 387 488 108.000000
E 387 541 106.000000
E 389 506 102.000000
E 389 525 93.000000
E 390 551 106.000000
E 391 592 96.000000
E 391 605 105.000000
E 392 417 107.000000
E 393 469 107.000000
E 394 397 106.000000
E 394 399 95.000000
E 396 499 97.000000
E 400 512 100.000000
E 401 465 89.000000
E 401 507 103.000000
E 401 574 108.000000
E 402 471 97.000000
E 403 528 95.000000
E 404 433 96.000000
E 404 477 107.000000
E 404 487 100.000000
E 404 501 102.000000
E 405 417 91.000000
E 405 558 94.000000
E 406 448 99.000000
E 406 625 98.000000
E 408 444 103.000000
E 408 460 97.000000
E 408 510 97.000000
E 409 450 96.000000
E 409 477 103.000000
E 411 439 98.000000
E 411 535 104.000000
E 411 583 98.000000
E 417 444 104.000000
E 418 440 108.000000
E 418 457 104.000000
E 418 566 91.000000
E 418 593 103.000000
E 420 429 97.000000
E 420 431 101.000000
E 421 465 97.000000
E 422 469 102.000000
E 423 445 103.000000
E 424 492 96.000000
E 424 541 103.000000
E 424 585 94.000000
E 426 548 99.000000
E 427 435 93.000000
E 428 556 97.000000
E 428 595 102.000000
E 430 523 103.000000
E 430 612 105.000000
E 431 460 92.000000
E 433 451 105.000000
E 433 457 97.000000
E 433 511 100.000000
E 433 561 96.000000
E 435 544 96.000000
E 436 603 95.000000
E 437 508 103.000000
E 440 581 97.000000
E 441 526 96.000000
E 442 445 104.000000
E 443 507 104.000000
E 445 482 103.000000
E 445 568 96.000000
E 445 637 99.000000
E 445 640 98.000000
E 446 540 102.000000
E 449 583 97.000000
E 451 585 106.000000
E 451 630 107.000000
E 452 511 99.000000
E 453 499 112.000000
E 454 543 100.000000
E 455 638 92.000000
E 456 596 94.000000
E 458 485 91.000000
E 458 540 96.000000
E 460 520 94.000000
E 460 522 109.000000
E 460 581 108.000000
E 461 518 100.000000
E 463 504 102.000000
E 464 481 104.000000
E 464 584 109.000000
E 464 595 101.000000
E 464 609 105.000000
E 465 509 96.000000
E 465 582 95.000000
E 467 626 98.000000
E 469 470 103.000000
E 469 493 102.000000
E 469 533 95.000000
E 472 507 103.000000
E 473 532 104.000000
E 474 544 97.000000
E 476 512 98.000000
E 476 526 97.000000
E 476 575 96.000000
E 476 589 91.000000
E 477 582 93.000000
E 480 562 106.000000
E 483 487 105.000000
E 483 533 110.000000
E 483 539 101.000000
E 483 575 109.000000
E 484 633 105.000000
E 486 498 99.000000
E 487 586 91.000000
E 488 495 101.000000
E 488 546 101.000000
E 489 505 100.000000
E 490 506 98.000000
E 490 530 100.000000
E 490 573 100.000000
E 491 541 108.000000
E 493 504 94.000000
E 493 524 94.000000
E 494 516 92.000000
E 495 498 104.000000
E 495 527 101.000000
E 495 549 102.000000
E 495 554 89.000000
E 497 618 99.000000
E 499 551 100.000000
E 501 607 86.000000
E 504 519 105.000000
E 507 527 96.000000
E 507 601 105.000000
E 508 515 104.000000
E 509 592 103.000000
E 512 608 93.000000
E 514 534 106.000000
E 515 543 107.000000
E 515 590 96.000000
E 518 544 102.000000
E 520 612 91.000000
E 521 626 107.000000
E 524 548 98.000000
E 530 548 104.000000
E 543 571 101.000000
E 544 545 99.000000
E 544 561 102.000000
E 548 564 93.000000
E 549 607 98.000000
E 554 581 104.000000
E 569 622 96.000000
E 574 592 94.000000
E 577 601 101.000000
E 579 594 102.000000
E 581 608 108.000000
E 596 604 101.000000
E 610 621 103.000000
E 626 639 97.000000
END

SECTION Terminals
Terminals 50
TP 1 1020.000000
TP 2 412.000000
TP 3 880.000000
TP 4 480.000000
TP 5 384.000000
TP 6 792.000000
TP 7 608.000000
TP 8 412.000000
TP 9 204.000000
TP 10 368.000000
TP 11 804.000000
TP 12 1068.000000
TP 13 764.000000
TP 14 1056.000000
TP 15 968.000000
TP 16 856.000000
TP 17 424.000000
TP 18 888.000000
TP 19 188.000000
TP 20 700.000000
TP 21 444.000000
TP 22 652.000000
TP 23 112.000000
TP 24 632.000000
TP 25 836.000000
TP 26 792.000000
TP 27 472.000000
TP 28 180.000000
TP 29 1048.000000
TP 30 608.000000
TP 31 888.000000
TP 32 436.000000
TP 33 1088.000000
TP 34 1072.000000
TP 35 948.000000
TP 36 500.000000
TP 37 672.000000
TP 38 420.000000
TP 39 556.000000
TP 40 564.000000
TP 41 720.000000
TP 42 0.000000
TP 43 1056.000000
TP 44 1072.000000
TP 45 128.000000
TP 46 236.000000
TP 47 480.000000
TP 48 260.000000
TP 49 192.000000
TP 50 344.000000
END

EOF
